c Generated by Lava2000
c 
c i0 : 5
c i1 : 6
c i2 : 14
c i3 : 15
c i4 : 27
c i5 : 28
c i6 : 42
c i7 : 43
c i8 : 57
c i9 : 58
c i10 : 72
c i11 : 73
c i12 : 87
c i13 : 88
c i14 : 102
c i15 : 103
c i16 : 117
c i17 : 118
c i18 : 132
c i19 : 133
c i20 : 147
c i21 : 148
c i22 : 162
c i23 : 163
c i24 : 177
c i25 : 178
c i26 : 192
c i27 : 193
c i28 : 207
c i29 : 208
c i30 : 222
c i31 : 223
c i32 : 237
c i33 : 238
c i34 : 252
c i35 : 253
c i36 : 267
c i37 : 268
c i38 : 282
c i39 : 283
c i40 : 297
c i41 : 298
c i42 : 312
c i43 : 313
c i44 : 327
c i45 : 328
c i46 : 342
c i47 : 343
c i48 : 357
c i49 : 358
c i50 : 372
c i51 : 373
c i52 : 387
c i53 : 388
c i54 : 402
c i55 : 403
c i56 : 417
c i57 : 418
c i58 : 432
c i59 : 433
c i60 : 447
c i61 : 448
c i62 : 462
c i63 : 463
p cnf 469 1340
-4 5 6 0
-4 -5 -6 0
4 -5 6 0
4 -6 5 0
-7 6 5 0
-7 -6 -5 0
7 -6 5 0
7 -5 6 0
-3 4 7 0
-3 -4 -7 0
3 -4 7 0
3 -7 4 0
-3 -2 0
3 2 0
12 -5 -6 0
-12 5 0
-12 6 0
-13 14 15 0
-13 -14 -15 0
13 -14 15 0
13 -15 14 0
-11 12 13 0
-11 -12 -13 0
11 -12 13 0
11 -13 12 0
17 -6 -5 0
-17 6 0
-17 5 0
-18 15 14 0
-18 -15 -14 0
18 -15 14 0
18 -14 15 0
-16 17 18 0
-16 -17 -18 0
16 -17 18 0
16 -18 17 0
-10 11 16 0
-10 -11 -16 0
10 -11 16 0
10 -16 11 0
-10 -9 0
10 9 0
24 -12 -13 0
-24 12 0
-24 13 0
25 -14 -15 0
-25 14 0
-25 15 0
-23 24 25 0
23 -24 0
23 -25 0
-26 27 28 0
-26 -27 -28 0
26 -27 28 0
26 -28 27 0
-22 23 26 0
-22 -23 -26 0
22 -23 26 0
22 -26 23 0
31 -17 -18 0
-31 17 0
-31 18 0
32 -15 -14 0
-32 15 0
-32 14 0
-30 31 32 0
30 -31 0
30 -32 0
-33 28 27 0
-33 -28 -27 0
33 -28 27 0
33 -27 28 0
-29 30 33 0
-29 -30 -33 0
29 -30 33 0
29 -33 30 0
-21 22 29 0
-21 -22 -29 0
21 -22 29 0
21 -29 22 0
-21 -20 0
21 20 0
39 -23 -26 0
-39 23 0
-39 26 0
40 -27 -28 0
-40 27 0
-40 28 0
-38 39 40 0
38 -39 0
38 -40 0
-41 42 43 0
-41 -42 -43 0
41 -42 43 0
41 -43 42 0
-37 38 41 0
-37 -38 -41 0
37 -38 41 0
37 -41 38 0
46 -30 -33 0
-46 30 0
-46 33 0
47 -28 -27 0
-47 28 0
-47 27 0
-45 46 47 0
45 -46 0
45 -47 0
-48 43 42 0
-48 -43 -42 0
48 -43 42 0
48 -42 43 0
-44 45 48 0
-44 -45 -48 0
44 -45 48 0
44 -48 45 0
-36 37 44 0
-36 -37 -44 0
36 -37 44 0
36 -44 37 0
-36 -35 0
36 35 0
54 -38 -41 0
-54 38 0
-54 41 0
55 -42 -43 0
-55 42 0
-55 43 0
-53 54 55 0
53 -54 0
53 -55 0
-56 57 58 0
-56 -57 -58 0
56 -57 58 0
56 -58 57 0
-52 53 56 0
-52 -53 -56 0
52 -53 56 0
52 -56 53 0
61 -45 -48 0
-61 45 0
-61 48 0
62 -43 -42 0
-62 43 0
-62 42 0
-60 61 62 0
60 -61 0
60 -62 0
-63 58 57 0
-63 -58 -57 0
63 -58 57 0
63 -57 58 0
-59 60 63 0
-59 -60 -63 0
59 -60 63 0
59 -63 60 0
-51 52 59 0
-51 -52 -59 0
51 -52 59 0
51 -59 52 0
-51 -50 0
51 50 0
69 -53 -56 0
-69 53 0
-69 56 0
70 -57 -58 0
-70 57 0
-70 58 0
-68 69 70 0
68 -69 0
68 -70 0
-71 72 73 0
-71 -72 -73 0
71 -72 73 0
71 -73 72 0
-67 68 71 0
-67 -68 -71 0
67 -68 71 0
67 -71 68 0
76 -60 -63 0
-76 60 0
-76 63 0
77 -58 -57 0
-77 58 0
-77 57 0
-75 76 77 0
75 -76 0
75 -77 0
-78 73 72 0
-78 -73 -72 0
78 -73 72 0
78 -72 73 0
-74 75 78 0
-74 -75 -78 0
74 -75 78 0
74 -78 75 0
-66 67 74 0
-66 -67 -74 0
66 -67 74 0
66 -74 67 0
-66 -65 0
66 65 0
84 -68 -71 0
-84 68 0
-84 71 0
85 -72 -73 0
-85 72 0
-85 73 0
-83 84 85 0
83 -84 0
83 -85 0
-86 87 88 0
-86 -87 -88 0
86 -87 88 0
86 -88 87 0
-82 83 86 0
-82 -83 -86 0
82 -83 86 0
82 -86 83 0
91 -75 -78 0
-91 75 0
-91 78 0
92 -73 -72 0
-92 73 0
-92 72 0
-90 91 92 0
90 -91 0
90 -92 0
-93 88 87 0
-93 -88 -87 0
93 -88 87 0
93 -87 88 0
-89 90 93 0
-89 -90 -93 0
89 -90 93 0
89 -93 90 0
-81 82 89 0
-81 -82 -89 0
81 -82 89 0
81 -89 82 0
-81 -80 0
81 80 0
99 -83 -86 0
-99 83 0
-99 86 0
100 -87 -88 0
-100 87 0
-100 88 0
-98 99 100 0
98 -99 0
98 -100 0
-101 102 103 0
-101 -102 -103 0
101 -102 103 0
101 -103 102 0
-97 98 101 0
-97 -98 -101 0
97 -98 101 0
97 -101 98 0
106 -90 -93 0
-106 90 0
-106 93 0
107 -88 -87 0
-107 88 0
-107 87 0
-105 106 107 0
105 -106 0
105 -107 0
-108 103 102 0
-108 -103 -102 0
108 -103 102 0
108 -102 103 0
-104 105 108 0
-104 -105 -108 0
104 -105 108 0
104 -108 105 0
-96 97 104 0
-96 -97 -104 0
96 -97 104 0
96 -104 97 0
-96 -95 0
96 95 0
114 -98 -101 0
-114 98 0
-114 101 0
115 -102 -103 0
-115 102 0
-115 103 0
-113 114 115 0
113 -114 0
113 -115 0
-116 117 118 0
-116 -117 -118 0
116 -117 118 0
116 -118 117 0
-112 113 116 0
-112 -113 -116 0
112 -113 116 0
112 -116 113 0
121 -105 -108 0
-121 105 0
-121 108 0
122 -103 -102 0
-122 103 0
-122 102 0
-120 121 122 0
120 -121 0
120 -122 0
-123 118 117 0
-123 -118 -117 0
123 -118 117 0
123 -117 118 0
-119 120 123 0
-119 -120 -123 0
119 -120 123 0
119 -123 120 0
-111 112 119 0
-111 -112 -119 0
111 -112 119 0
111 -119 112 0
-111 -110 0
111 110 0
129 -113 -116 0
-129 113 0
-129 116 0
130 -117 -118 0
-130 117 0
-130 118 0
-128 129 130 0
128 -129 0
128 -130 0
-131 132 133 0
-131 -132 -133 0
131 -132 133 0
131 -133 132 0
-127 128 131 0
-127 -128 -131 0
127 -128 131 0
127 -131 128 0
136 -120 -123 0
-136 120 0
-136 123 0
137 -118 -117 0
-137 118 0
-137 117 0
-135 136 137 0
135 -136 0
135 -137 0
-138 133 132 0
-138 -133 -132 0
138 -133 132 0
138 -132 133 0
-134 135 138 0
-134 -135 -138 0
134 -135 138 0
134 -138 135 0
-126 127 134 0
-126 -127 -134 0
126 -127 134 0
126 -134 127 0
-126 -125 0
126 125 0
144 -128 -131 0
-144 128 0
-144 131 0
145 -132 -133 0
-145 132 0
-145 133 0
-143 144 145 0
143 -144 0
143 -145 0
-146 147 148 0
-146 -147 -148 0
146 -147 148 0
146 -148 147 0
-142 143 146 0
-142 -143 -146 0
142 -143 146 0
142 -146 143 0
151 -135 -138 0
-151 135 0
-151 138 0
152 -133 -132 0
-152 133 0
-152 132 0
-150 151 152 0
150 -151 0
150 -152 0
-153 148 147 0
-153 -148 -147 0
153 -148 147 0
153 -147 148 0
-149 150 153 0
-149 -150 -153 0
149 -150 153 0
149 -153 150 0
-141 142 149 0
-141 -142 -149 0
141 -142 149 0
141 -149 142 0
-141 -140 0
141 140 0
159 -143 -146 0
-159 143 0
-159 146 0
160 -147 -148 0
-160 147 0
-160 148 0
-158 159 160 0
158 -159 0
158 -160 0
-161 162 163 0
-161 -162 -163 0
161 -162 163 0
161 -163 162 0
-157 158 161 0
-157 -158 -161 0
157 -158 161 0
157 -161 158 0
166 -150 -153 0
-166 150 0
-166 153 0
167 -148 -147 0
-167 148 0
-167 147 0
-165 166 167 0
165 -166 0
165 -167 0
-168 163 162 0
-168 -163 -162 0
168 -163 162 0
168 -162 163 0
-164 165 168 0
-164 -165 -168 0
164 -165 168 0
164 -168 165 0
-156 157 164 0
-156 -157 -164 0
156 -157 164 0
156 -164 157 0
-156 -155 0
156 155 0
174 -158 -161 0
-174 158 0
-174 161 0
175 -162 -163 0
-175 162 0
-175 163 0
-173 174 175 0
173 -174 0
173 -175 0
-176 177 178 0
-176 -177 -178 0
176 -177 178 0
176 -178 177 0
-172 173 176 0
-172 -173 -176 0
172 -173 176 0
172 -176 173 0
181 -165 -168 0
-181 165 0
-181 168 0
182 -163 -162 0
-182 163 0
-182 162 0
-180 181 182 0
180 -181 0
180 -182 0
-183 178 177 0
-183 -178 -177 0
183 -178 177 0
183 -177 178 0
-179 180 183 0
-179 -180 -183 0
179 -180 183 0
179 -183 180 0
-171 172 179 0
-171 -172 -179 0
171 -172 179 0
171 -179 172 0
-171 -170 0
171 170 0
189 -173 -176 0
-189 173 0
-189 176 0
190 -177 -178 0
-190 177 0
-190 178 0
-188 189 190 0
188 -189 0
188 -190 0
-191 192 193 0
-191 -192 -193 0
191 -192 193 0
191 -193 192 0
-187 188 191 0
-187 -188 -191 0
187 -188 191 0
187 -191 188 0
196 -180 -183 0
-196 180 0
-196 183 0
197 -178 -177 0
-197 178 0
-197 177 0
-195 196 197 0
195 -196 0
195 -197 0
-198 193 192 0
-198 -193 -192 0
198 -193 192 0
198 -192 193 0
-194 195 198 0
-194 -195 -198 0
194 -195 198 0
194 -198 195 0
-186 187 194 0
-186 -187 -194 0
186 -187 194 0
186 -194 187 0
-186 -185 0
186 185 0
204 -188 -191 0
-204 188 0
-204 191 0
205 -192 -193 0
-205 192 0
-205 193 0
-203 204 205 0
203 -204 0
203 -205 0
-206 207 208 0
-206 -207 -208 0
206 -207 208 0
206 -208 207 0
-202 203 206 0
-202 -203 -206 0
202 -203 206 0
202 -206 203 0
211 -195 -198 0
-211 195 0
-211 198 0
212 -193 -192 0
-212 193 0
-212 192 0
-210 211 212 0
210 -211 0
210 -212 0
-213 208 207 0
-213 -208 -207 0
213 -208 207 0
213 -207 208 0
-209 210 213 0
-209 -210 -213 0
209 -210 213 0
209 -213 210 0
-201 202 209 0
-201 -202 -209 0
201 -202 209 0
201 -209 202 0
-201 -200 0
201 200 0
219 -203 -206 0
-219 203 0
-219 206 0
220 -207 -208 0
-220 207 0
-220 208 0
-218 219 220 0
218 -219 0
218 -220 0
-221 222 223 0
-221 -222 -223 0
221 -222 223 0
221 -223 222 0
-217 218 221 0
-217 -218 -221 0
217 -218 221 0
217 -221 218 0
226 -210 -213 0
-226 210 0
-226 213 0
227 -208 -207 0
-227 208 0
-227 207 0
-225 226 227 0
225 -226 0
225 -227 0
-228 223 222 0
-228 -223 -222 0
228 -223 222 0
228 -222 223 0
-224 225 228 0
-224 -225 -228 0
224 -225 228 0
224 -228 225 0
-216 217 224 0
-216 -217 -224 0
216 -217 224 0
216 -224 217 0
-216 -215 0
216 215 0
234 -218 -221 0
-234 218 0
-234 221 0
235 -222 -223 0
-235 222 0
-235 223 0
-233 234 235 0
233 -234 0
233 -235 0
-236 237 238 0
-236 -237 -238 0
236 -237 238 0
236 -238 237 0
-232 233 236 0
-232 -233 -236 0
232 -233 236 0
232 -236 233 0
241 -225 -228 0
-241 225 0
-241 228 0
242 -223 -222 0
-242 223 0
-242 222 0
-240 241 242 0
240 -241 0
240 -242 0
-243 238 237 0
-243 -238 -237 0
243 -238 237 0
243 -237 238 0
-239 240 243 0
-239 -240 -243 0
239 -240 243 0
239 -243 240 0
-231 232 239 0
-231 -232 -239 0
231 -232 239 0
231 -239 232 0
-231 -230 0
231 230 0
249 -233 -236 0
-249 233 0
-249 236 0
250 -237 -238 0
-250 237 0
-250 238 0
-248 249 250 0
248 -249 0
248 -250 0
-251 252 253 0
-251 -252 -253 0
251 -252 253 0
251 -253 252 0
-247 248 251 0
-247 -248 -251 0
247 -248 251 0
247 -251 248 0
256 -240 -243 0
-256 240 0
-256 243 0
257 -238 -237 0
-257 238 0
-257 237 0
-255 256 257 0
255 -256 0
255 -257 0
-258 253 252 0
-258 -253 -252 0
258 -253 252 0
258 -252 253 0
-254 255 258 0
-254 -255 -258 0
254 -255 258 0
254 -258 255 0
-246 247 254 0
-246 -247 -254 0
246 -247 254 0
246 -254 247 0
-246 -245 0
246 245 0
264 -248 -251 0
-264 248 0
-264 251 0
265 -252 -253 0
-265 252 0
-265 253 0
-263 264 265 0
263 -264 0
263 -265 0
-266 267 268 0
-266 -267 -268 0
266 -267 268 0
266 -268 267 0
-262 263 266 0
-262 -263 -266 0
262 -263 266 0
262 -266 263 0
271 -255 -258 0
-271 255 0
-271 258 0
272 -253 -252 0
-272 253 0
-272 252 0
-270 271 272 0
270 -271 0
270 -272 0
-273 268 267 0
-273 -268 -267 0
273 -268 267 0
273 -267 268 0
-269 270 273 0
-269 -270 -273 0
269 -270 273 0
269 -273 270 0
-261 262 269 0
-261 -262 -269 0
261 -262 269 0
261 -269 262 0
-261 -260 0
261 260 0
279 -263 -266 0
-279 263 0
-279 266 0
280 -267 -268 0
-280 267 0
-280 268 0
-278 279 280 0
278 -279 0
278 -280 0
-281 282 283 0
-281 -282 -283 0
281 -282 283 0
281 -283 282 0
-277 278 281 0
-277 -278 -281 0
277 -278 281 0
277 -281 278 0
286 -270 -273 0
-286 270 0
-286 273 0
287 -268 -267 0
-287 268 0
-287 267 0
-285 286 287 0
285 -286 0
285 -287 0
-288 283 282 0
-288 -283 -282 0
288 -283 282 0
288 -282 283 0
-284 285 288 0
-284 -285 -288 0
284 -285 288 0
284 -288 285 0
-276 277 284 0
-276 -277 -284 0
276 -277 284 0
276 -284 277 0
-276 -275 0
276 275 0
294 -278 -281 0
-294 278 0
-294 281 0
295 -282 -283 0
-295 282 0
-295 283 0
-293 294 295 0
293 -294 0
293 -295 0
-296 297 298 0
-296 -297 -298 0
296 -297 298 0
296 -298 297 0
-292 293 296 0
-292 -293 -296 0
292 -293 296 0
292 -296 293 0
301 -285 -288 0
-301 285 0
-301 288 0
302 -283 -282 0
-302 283 0
-302 282 0
-300 301 302 0
300 -301 0
300 -302 0
-303 298 297 0
-303 -298 -297 0
303 -298 297 0
303 -297 298 0
-299 300 303 0
-299 -300 -303 0
299 -300 303 0
299 -303 300 0
-291 292 299 0
-291 -292 -299 0
291 -292 299 0
291 -299 292 0
-291 -290 0
291 290 0
309 -293 -296 0
-309 293 0
-309 296 0
310 -297 -298 0
-310 297 0
-310 298 0
-308 309 310 0
308 -309 0
308 -310 0
-311 312 313 0
-311 -312 -313 0
311 -312 313 0
311 -313 312 0
-307 308 311 0
-307 -308 -311 0
307 -308 311 0
307 -311 308 0
316 -300 -303 0
-316 300 0
-316 303 0
317 -298 -297 0
-317 298 0
-317 297 0
-315 316 317 0
315 -316 0
315 -317 0
-318 313 312 0
-318 -313 -312 0
318 -313 312 0
318 -312 313 0
-314 315 318 0
-314 -315 -318 0
314 -315 318 0
314 -318 315 0
-306 307 314 0
-306 -307 -314 0
306 -307 314 0
306 -314 307 0
-306 -305 0
306 305 0
324 -308 -311 0
-324 308 0
-324 311 0
325 -312 -313 0
-325 312 0
-325 313 0
-323 324 325 0
323 -324 0
323 -325 0
-326 327 328 0
-326 -327 -328 0
326 -327 328 0
326 -328 327 0
-322 323 326 0
-322 -323 -326 0
322 -323 326 0
322 -326 323 0
331 -315 -318 0
-331 315 0
-331 318 0
332 -313 -312 0
-332 313 0
-332 312 0
-330 331 332 0
330 -331 0
330 -332 0
-333 328 327 0
-333 -328 -327 0
333 -328 327 0
333 -327 328 0
-329 330 333 0
-329 -330 -333 0
329 -330 333 0
329 -333 330 0
-321 322 329 0
-321 -322 -329 0
321 -322 329 0
321 -329 322 0
-321 -320 0
321 320 0
339 -323 -326 0
-339 323 0
-339 326 0
340 -327 -328 0
-340 327 0
-340 328 0
-338 339 340 0
338 -339 0
338 -340 0
-341 342 343 0
-341 -342 -343 0
341 -342 343 0
341 -343 342 0
-337 338 341 0
-337 -338 -341 0
337 -338 341 0
337 -341 338 0
346 -330 -333 0
-346 330 0
-346 333 0
347 -328 -327 0
-347 328 0
-347 327 0
-345 346 347 0
345 -346 0
345 -347 0
-348 343 342 0
-348 -343 -342 0
348 -343 342 0
348 -342 343 0
-344 345 348 0
-344 -345 -348 0
344 -345 348 0
344 -348 345 0
-336 337 344 0
-336 -337 -344 0
336 -337 344 0
336 -344 337 0
-336 -335 0
336 335 0
354 -338 -341 0
-354 338 0
-354 341 0
355 -342 -343 0
-355 342 0
-355 343 0
-353 354 355 0
353 -354 0
353 -355 0
-356 357 358 0
-356 -357 -358 0
356 -357 358 0
356 -358 357 0
-352 353 356 0
-352 -353 -356 0
352 -353 356 0
352 -356 353 0
361 -345 -348 0
-361 345 0
-361 348 0
362 -343 -342 0
-362 343 0
-362 342 0
-360 361 362 0
360 -361 0
360 -362 0
-363 358 357 0
-363 -358 -357 0
363 -358 357 0
363 -357 358 0
-359 360 363 0
-359 -360 -363 0
359 -360 363 0
359 -363 360 0
-351 352 359 0
-351 -352 -359 0
351 -352 359 0
351 -359 352 0
-351 -350 0
351 350 0
369 -353 -356 0
-369 353 0
-369 356 0
370 -357 -358 0
-370 357 0
-370 358 0
-368 369 370 0
368 -369 0
368 -370 0
-371 372 373 0
-371 -372 -373 0
371 -372 373 0
371 -373 372 0
-367 368 371 0
-367 -368 -371 0
367 -368 371 0
367 -371 368 0
376 -360 -363 0
-376 360 0
-376 363 0
377 -358 -357 0
-377 358 0
-377 357 0
-375 376 377 0
375 -376 0
375 -377 0
-378 373 372 0
-378 -373 -372 0
378 -373 372 0
378 -372 373 0
-374 375 378 0
-374 -375 -378 0
374 -375 378 0
374 -378 375 0
-366 367 374 0
-366 -367 -374 0
366 -367 374 0
366 -374 367 0
-366 -365 0
366 365 0
384 -368 -371 0
-384 368 0
-384 371 0
385 -372 -373 0
-385 372 0
-385 373 0
-383 384 385 0
383 -384 0
383 -385 0
-386 387 388 0
-386 -387 -388 0
386 -387 388 0
386 -388 387 0
-382 383 386 0
-382 -383 -386 0
382 -383 386 0
382 -386 383 0
391 -375 -378 0
-391 375 0
-391 378 0
392 -373 -372 0
-392 373 0
-392 372 0
-390 391 392 0
390 -391 0
390 -392 0
-393 388 387 0
-393 -388 -387 0
393 -388 387 0
393 -387 388 0
-389 390 393 0
-389 -390 -393 0
389 -390 393 0
389 -393 390 0
-381 382 389 0
-381 -382 -389 0
381 -382 389 0
381 -389 382 0
-381 -380 0
381 380 0
399 -383 -386 0
-399 383 0
-399 386 0
400 -387 -388 0
-400 387 0
-400 388 0
-398 399 400 0
398 -399 0
398 -400 0
-401 402 403 0
-401 -402 -403 0
401 -402 403 0
401 -403 402 0
-397 398 401 0
-397 -398 -401 0
397 -398 401 0
397 -401 398 0
406 -390 -393 0
-406 390 0
-406 393 0
407 -388 -387 0
-407 388 0
-407 387 0
-405 406 407 0
405 -406 0
405 -407 0
-408 403 402 0
-408 -403 -402 0
408 -403 402 0
408 -402 403 0
-404 405 408 0
-404 -405 -408 0
404 -405 408 0
404 -408 405 0
-396 397 404 0
-396 -397 -404 0
396 -397 404 0
396 -404 397 0
-396 -395 0
396 395 0
414 -398 -401 0
-414 398 0
-414 401 0
415 -402 -403 0
-415 402 0
-415 403 0
-413 414 415 0
413 -414 0
413 -415 0
-416 417 418 0
-416 -417 -418 0
416 -417 418 0
416 -418 417 0
-412 413 416 0
-412 -413 -416 0
412 -413 416 0
412 -416 413 0
421 -405 -408 0
-421 405 0
-421 408 0
422 -403 -402 0
-422 403 0
-422 402 0
-420 421 422 0
420 -421 0
420 -422 0
-423 418 417 0
-423 -418 -417 0
423 -418 417 0
423 -417 418 0
-419 420 423 0
-419 -420 -423 0
419 -420 423 0
419 -423 420 0
-411 412 419 0
-411 -412 -419 0
411 -412 419 0
411 -419 412 0
-411 -410 0
411 410 0
429 -413 -416 0
-429 413 0
-429 416 0
430 -417 -418 0
-430 417 0
-430 418 0
-428 429 430 0
428 -429 0
428 -430 0
-431 432 433 0
-431 -432 -433 0
431 -432 433 0
431 -433 432 0
-427 428 431 0
-427 -428 -431 0
427 -428 431 0
427 -431 428 0
436 -420 -423 0
-436 420 0
-436 423 0
437 -418 -417 0
-437 418 0
-437 417 0
-435 436 437 0
435 -436 0
435 -437 0
-438 433 432 0
-438 -433 -432 0
438 -433 432 0
438 -432 433 0
-434 435 438 0
-434 -435 -438 0
434 -435 438 0
434 -438 435 0
-426 427 434 0
-426 -427 -434 0
426 -427 434 0
426 -434 427 0
-426 -425 0
426 425 0
444 -428 -431 0
-444 428 0
-444 431 0
445 -432 -433 0
-445 432 0
-445 433 0
-443 444 445 0
443 -444 0
443 -445 0
-446 447 448 0
-446 -447 -448 0
446 -447 448 0
446 -448 447 0
-442 443 446 0
-442 -443 -446 0
442 -443 446 0
442 -446 443 0
451 -435 -438 0
-451 435 0
-451 438 0
452 -433 -432 0
-452 433 0
-452 432 0
-450 451 452 0
450 -451 0
450 -452 0
-453 448 447 0
-453 -448 -447 0
453 -448 447 0
453 -447 448 0
-449 450 453 0
-449 -450 -453 0
449 -450 453 0
449 -453 450 0
-441 442 449 0
-441 -442 -449 0
441 -442 449 0
441 -449 442 0
-441 -440 0
441 440 0
459 -443 -446 0
-459 443 0
-459 446 0
460 -447 -448 0
-460 447 0
-460 448 0
-458 459 460 0
458 -459 0
458 -460 0
-461 462 463 0
-461 -462 -463 0
461 -462 463 0
461 -463 462 0
-457 458 461 0
-457 -458 -461 0
457 -458 461 0
457 -461 458 0
466 -450 -453 0
-466 450 0
-466 453 0
467 -448 -447 0
-467 448 0
-467 447 0
-465 466 467 0
465 -466 0
465 -467 0
-468 463 462 0
-468 -463 -462 0
468 -463 462 0
468 -462 463 0
-464 465 468 0
-464 -465 -468 0
464 -465 468 0
464 -468 465 0
-456 457 464 0
-456 -457 -464 0
456 -457 464 0
456 -464 457 0
-456 -455 0
456 455 0
469 0
454 -455 -469 0
-454 455 0
-454 469 0
439 -440 -454 0
-439 440 0
-439 454 0
424 -425 -439 0
-424 425 0
-424 439 0
409 -410 -424 0
-409 410 0
-409 424 0
394 -395 -409 0
-394 395 0
-394 409 0
379 -380 -394 0
-379 380 0
-379 394 0
364 -365 -379 0
-364 365 0
-364 379 0
349 -350 -364 0
-349 350 0
-349 364 0
334 -335 -349 0
-334 335 0
-334 349 0
319 -320 -334 0
-319 320 0
-319 334 0
304 -305 -319 0
-304 305 0
-304 319 0
289 -290 -304 0
-289 290 0
-289 304 0
274 -275 -289 0
-274 275 0
-274 289 0
259 -260 -274 0
-259 260 0
-259 274 0
244 -245 -259 0
-244 245 0
-244 259 0
229 -230 -244 0
-229 230 0
-229 244 0
214 -215 -229 0
-214 215 0
-214 229 0
199 -200 -214 0
-199 200 0
-199 214 0
184 -185 -199 0
-184 185 0
-184 199 0
169 -170 -184 0
-169 170 0
-169 184 0
154 -155 -169 0
-154 155 0
-154 169 0
139 -140 -154 0
-139 140 0
-139 154 0
124 -125 -139 0
-124 125 0
-124 139 0
109 -110 -124 0
-109 110 0
-109 124 0
94 -95 -109 0
-94 95 0
-94 109 0
79 -80 -94 0
-79 80 0
-79 94 0
64 -65 -79 0
-64 65 0
-64 79 0
49 -50 -64 0
-49 50 0
-49 64 0
34 -35 -49 0
-34 35 0
-34 49 0
19 -20 -34 0
-19 20 0
-19 34 0
8 -9 -19 0
-8 9 0
-8 19 0
1 -2 -8 0
-1 2 0
-1 8 0
-1 0
